assets/logs/3_12x12_clingo/3_12x12_clingo.solution.log

-------------------------------------------------
|  0|  1| 42|  1| 21| 36|  0|124| 26|116| 70|120|
-------------------------------------------------
| 44|  2| 80| 38| 76|126| 23| 34| 72|122|108|114|
-------------------------------------------------
| 82| 40| 65|128| 61| 19| 74| 24|110| 28|118| 68|
-------------------------------------------------
| 67| 46|  4| 78| 52| 22| 32| 25| 31| 66|112|106|
-------------------------------------------------
|  6| 84| 50| 63|130| 59| 17| 55| 30|104| 29| 64|
-------------------------------------------------
| 48| 69| 16|  0| 15| 54| 20| 33| 27| 62| 99|102|
-------------------------------------------------
| 86|  8| 13|127| 18| 35| 57|  1| 53|100|  1|  0|
-------------------------------------------------
| 71|125|  1| 14| 11|129| 56| 98| 39| 97| 60|101|
-------------------------------------------------
| 10| 88| 73|123|113| 96| 37|131| 58| 51| 81| 95|
-------------------------------------------------
|  1|  1| 12| 94| 75|  9|119| 41| 79| 89|103| 49|
-------------------------------------------------
| 90|  1|  5|115|121|111| 77| 87| 45|107| 93| 83|
-------------------------------------------------
|  3|  0| 92|  0|  7|117| 43|109| 91| 85| 47|105|
-------------------------------------------------

| n = 12 | k = 8 | coverage = 138, 95.83333333333333%
 Time 300.002
 Name 3_12x12_clingo

