assets/logs/3_12x12_clingo/3_12x12_clingo.log
clingo version 5.4.0
Reading from ...ts/logs/3_12x12_clingo/knights_tour.lp ...
Solving...
Answer: 1
occ(1,10,1) occ(1,11,2) occ(1,7,11) occ(1,10,2) occ(1,1,2) occ(1,7,8) occ(1,1,4) occ(1,8,3) occ(2,2,2) occ(3,12,1) coverage(6)
Optimization: -6
Answer: 2
occ(1,10,1) occ(1,11,2) occ(1,7,11) occ(1,10,2) occ(1,1,2) occ(1,7,8) occ(1,1,4) occ(1,8,3) occ(2,2,2) occ(3,12,1) coverage(7) occ(6,3,3) occ(4,4,1)
Optimization: -7
Answer: 3
occ(1,10,1) occ(1,11,2) occ(1,7,11) occ(1,10,2) occ(1,1,2) occ(1,7,8) occ(1,1,4) occ(1,8,3) occ(2,2,2) occ(3,12,1) coverage(45) occ(50,1,9) occ(92,1,8) occ(118,1,11) occ(136,1,6) occ(140,1,10) occ(48,2,11) occ(90,2,6) occ(96,2,9) occ(128,2,5) occ(134,2,4) occ(138,2,8) occ(142,2,12) occ(41,3,11) occ(46,3,9) occ(52,3,8) occ(94,3,7) occ(116,3,10) occ(120,3,12) occ(132,3,2) occ(4,4,1) occ(16,4,3) occ(39,4,9) occ(44,4,11) occ(64,4,5) occ(88,4,7) occ(98,4,8) occ(114,4,12) occ(122,4,10) occ(126,4,6) occ(130,4,4) occ(14,5,1) occ(18,5,5) occ(37,5,11) occ(43,5,12) occ(54,5,9) occ(62,5,7) occ(124,5,8) occ(6,6,2) occ(24,6,1) occ(33,6,12) occ(42,6,10) occ(56,6,7) occ(66,6,6) occ(86,6,8) occ(100,6,9) occ(112,6,11) occ(12,7,2) occ(20,7,4) occ(26,7,3) occ(35,7,10) occ(40,7,12) occ(60,7,6) occ(102,7,7) occ(8,8,1) occ(22,8,2) occ(31,8,11) occ(58,8,8) occ(68,8,7) occ(84,8,9) occ(110,8,12) occ(7,9,4) occ(10,9,3) occ(23,9,12) occ(28,9,2) occ(38,9,11) occ(70,9,5) occ(82,9,7) occ(104,9,8) occ(11,10,7) occ(17,10,8) occ(25,10,10) occ(29,10,12) occ(30,10,4) occ(36,10,9) occ(76,10,3) occ(80,10,5) occ(108,10,11) occ(5,11,3) occ(9,11,5) occ(15,11,6) occ(21,11,11) occ(34,11,7) occ(72,11,4) occ(106,11,9) occ(13,12,8) occ(19,12,9) occ(27,12,11) occ(32,12,5) occ(74,12,2) occ(78,12,4)
Optimization: -45
Answer: 4
occ(1,10,1) occ(1,11,2) occ(1,7,11) occ(1,10,2) occ(1,1,2) occ(1,7,8) occ(1,1,4) occ(1,8,3) occ(2,2,2) occ(3,12,1) coverage(119) occ(6,1,3) occ(30,1,1) occ(59,1,10) occ(69,1,11) occ(72,1,6) occ(98,1,9) occ(104,1,8) occ(8,2,1) occ(28,2,3) occ(67,2,9) occ(70,2,4) occ(76,2,7) occ(85,2,12) occ(89,2,8) occ(96,2,11) occ(102,2,6) occ(106,2,10) occ(112,2,5) occ(4,3,4) occ(32,3,2) occ(57,3,9) occ(61,3,11) occ(71,3,12) occ(74,3,5) occ(87,3,10) occ(91,3,6) occ(100,3,8) occ(110,3,7) occ(114,3,3) occ(10,4,2) occ(16,4,1) occ(26,4,4) occ(53,4,8) occ(65,4,10) occ(68,4,3) occ(78,4,6) occ(83,4,11) occ(94,4,12) occ(108,4,9) occ(14,5,3) occ(24,5,2) occ(34,5,1) occ(55,5,10) occ(63,5,12) occ(66,5,5) occ(73,5,11) occ(80,5,8) occ(84,5,6) occ(93,5,7) occ(116,5,4) occ(12,6,1) occ(18,6,2) occ(36,6,3) occ(51,6,7) occ(54,6,4) occ(75,6,9) occ(81,6,10) occ(86,6,8) occ(92,6,11) occ(95,6,5) occ(118,6,6) occ(22,7,3) occ(40,7,4) occ(49,7,5) occ(52,7,2) occ(64,7,6) occ(79,7,12) occ(82,7,7) occ(88,7,10) occ(20,8,1) occ(27,8,9) occ(38,8,2) occ(41,8,6) occ(56,8,5) occ(77,8,10) occ(90,8,12) occ(97,8,4) occ(111,8,11) occ(120,8,7) occ(13,9,11) occ(25,9,7) occ(31,9,10) occ(39,9,8) occ(42,9,3) occ(43,9,4) occ(47,9,6) occ(50,9,1) occ(62,9,5) occ(99,9,2) occ(109,9,9) occ(11,10,9) occ(19,10,11) occ(29,10,8) occ(33,10,12) occ(44,10,5) occ(48,10,3) occ(58,10,6) occ(101,10,4) occ(107,10,7) occ(113,10,10) occ(5,11,3) occ(9,11,7) occ(15,11,10) occ(23,11,8) occ(37,11,9) occ(45,11,5) occ(60,11,4) occ(103,11,6) occ(117,11,11) occ(7,12,5) occ(17,12,12) occ(21,12,10) occ(35,12,11) occ(46,12,4) occ(105,12,8) occ(115,12,9)
Optimization: -119
Answer: 5
occ(1,10,1) occ(1,11,2) occ(1,7,11) occ(1,10,2) occ(1,1,2) occ(1,7,8) occ(1,1,4) occ(1,8,3) occ(2,2,2) occ(3,12,1) coverage(126) occ(14,1,3) occ(18,1,5) occ(28,1,10) occ(84,1,12) occ(99,1,6) occ(109,1,7) occ(121,1,9) occ(122,1,11) occ(12,2,1) occ(20,2,7) occ(26,2,12) occ(86,2,10) occ(97,2,4) occ(101,2,8) occ(111,2,5) occ(112,2,3) occ(117,2,6) occ(120,2,9) occ(123,2,11) occ(16,3,4) occ(24,3,10) occ(30,3,9) occ(82,3,11) occ(89,3,5) occ(95,3,2) occ(107,3,6) occ(110,3,1) occ(113,3,3) occ(118,3,7) occ(119,3,8) occ(124,3,12) occ(4,4,1) occ(10,4,2) occ(22,4,8) occ(76,4,11) occ(88,4,9) occ(91,4,3) occ(103,4,7) occ(114,4,4) occ(115,4,5) occ(125,4,12) occ(6,5,3) occ(32,5,10) occ(49,5,7) occ(53,5,11) occ(74,5,9) occ(80,5,12) occ(87,5,4) occ(93,5,1) occ(105,5,5) occ(108,5,2) occ(116,5,6) occ(8,6,1) occ(36,6,11) occ(42,6,12) occ(47,6,5) occ(51,6,9) occ(72,6,7) occ(78,6,10) occ(85,6,2) occ(90,6,8) occ(98,6,6) occ(104,6,3) occ(34,7,9) occ(40,7,10) occ(41,7,3) occ(55,7,12) occ(75,7,6) occ(79,7,4) occ(94,7,7) occ(102,7,5) occ(106,7,1) occ(37,8,6) occ(38,8,12) occ(44,8,11) occ(45,8,4) occ(57,8,10) occ(70,8,8) occ(83,8,1) occ(92,8,9) occ(96,8,5) occ(100,8,7) occ(39,9,4) occ(43,9,2) occ(48,9,8) occ(56,9,10) occ(65,9,11) occ(68,9,6) occ(73,9,7) occ(77,9,5) occ(81,9,3) occ(9,10,6) occ(15,10,3) occ(23,10,9) occ(31,10,5) occ(35,10,7) occ(46,10,10) occ(54,10,12) occ(58,10,8) occ(59,10,11) occ(66,10,4) occ(5,11,3) occ(11,11,4) occ(19,11,6) occ(25,11,11) occ(29,11,7) occ(50,11,9) occ(62,11,5) occ(63,11,10) occ(67,11,12) occ(71,11,8) occ(7,12,5) occ(13,12,2) occ(17,12,4) occ(21,12,8) occ(27,12,9) occ(33,12,6) occ(52,12,11) occ(60,12,7) occ(61,12,12) occ(64,12,3) occ(69,12,10)
Optimization: -126
Answer: 6
occ(1,10,1) occ(1,11,2) occ(1,7,11) occ(1,10,2) occ(1,1,2) occ(1,7,8) occ(1,1,4) occ(1,8,3) occ(2,2,2) occ(3,12,1) coverage(127) occ(10,1,3) occ(14,1,7) occ(81,1,9) occ(82,1,1) occ(88,1,6) occ(92,1,8) occ(123,1,10) occ(8,2,1) occ(12,2,5) occ(16,2,9) occ(62,2,6) occ(77,2,8) occ(80,2,3) occ(83,2,7) occ(86,2,4) occ(94,2,10) occ(121,2,12) occ(6,3,3) occ(18,3,11) occ(25,3,5) occ(60,3,8) occ(64,3,4) occ(79,3,10) occ(84,3,2) occ(90,3,7) occ(91,3,6) occ(96,3,12) occ(125,3,9) occ(4,4,1) occ(23,4,7) occ(27,4,3) occ(38,4,12) occ(65,4,10) occ(71,4,5) occ(75,4,9) occ(78,4,2) occ(85,4,8) occ(89,4,4) occ(119,4,11) occ(122,4,6) occ(20,5,12) occ(29,5,1) occ(40,5,10) occ(58,5,9) occ(66,5,3) occ(67,5,8) occ(73,5,7) occ(87,5,6) occ(93,5,5) occ(98,5,11) occ(120,5,4) occ(21,6,8) occ(22,6,10) occ(31,6,3) occ(36,6,11) occ(57,6,4) occ(63,6,9) occ(68,6,5) occ(69,6,6) occ(76,6,1) occ(117,6,12) occ(118,6,2) occ(124,6,7) occ(33,7,5) occ(42,7,9) occ(47,7,2) occ(55,7,6) occ(56,7,10) occ(61,7,7) occ(70,7,3) occ(95,7,4) occ(100,7,12) occ(19,8,7) occ(24,8,9) occ(34,8,10) occ(45,8,4) occ(54,8,12) occ(59,8,5) occ(74,8,2) occ(97,8,6) occ(115,8,11) occ(116,8,1) occ(126,8,8) occ(17,9,9) occ(35,9,6) occ(43,9,2) occ(44,9,8) occ(49,9,1) occ(52,9,10) occ(53,9,5) occ(72,9,4) occ(102,9,11) occ(107,9,12) occ(114,9,3) occ(9,10,4) occ(15,10,7) occ(26,10,8) occ(32,10,11) occ(46,10,6) occ(51,10,3) occ(99,10,5) occ(103,10,9) occ(109,10,10) occ(113,10,12) occ(5,11,3) occ(11,11,6) occ(28,11,10) occ(37,11,5) occ(41,11,1) occ(50,11,9) occ(101,11,7) occ(104,11,12) occ(105,11,11) occ(108,11,8) occ(112,11,4) occ(7,12,5) occ(13,12,8) occ(30,12,12) occ(39,12,3) occ(48,12,7) occ(106,12,10) occ(110,12,6) occ(111,12,11)
Optimization: -127
Answer: 7
occ(1,10,1) occ(1,11,2) occ(1,7,11) occ(1,10,2) occ(1,1,2) occ(1,7,8) occ(1,1,4) occ(1,8,3) occ(2,2,2) occ(3,12,1) coverage(128) occ(12,1,8) occ(28,1,10) occ(47,1,6) occ(77,1,5) occ(114,1,3) occ(118,1,7) occ(122,1,11) occ(10,2,6) occ(16,2,7) occ(30,2,12) occ(45,2,4) occ(53,2,8) occ(75,2,3) occ(112,2,1) occ(116,2,5) occ(120,2,9) occ(126,2,10) occ(6,3,3) occ(14,3,9) occ(20,3,8) occ(26,3,11) occ(32,3,10) occ(43,3,2) occ(49,3,7) occ(55,3,6) occ(65,3,1) occ(73,3,5) occ(79,3,4) occ(124,3,12) occ(4,4,1) occ(8,4,5) occ(18,4,6) occ(22,4,10) occ(34,4,12) occ(51,4,9) occ(57,4,4) occ(67,4,3) occ(91,4,7) occ(110,4,2) occ(111,4,11) occ(15,5,4) occ(24,5,12) occ(36,5,10) occ(41,5,1) occ(42,5,11) occ(48,5,8) occ(63,5,2) occ(71,5,6) occ(81,5,3) occ(86,5,7) occ(89,5,5) occ(109,5,9) occ(11,6,5) occ(17,6,2) occ(38,6,8) occ(46,6,10) occ(59,6,3) occ(69,6,4) occ(87,6,7) occ(88,6,9) occ(93,6,6) occ(107,6,11) occ(108,6,1) occ(113,6,12) occ(13,7,3) occ(39,7,2) occ(40,7,10) occ(44,7,12) occ(50,7,7) occ(61,7,1) occ(83,7,4) occ(84,7,6) occ(105,7,9) occ(9,8,4) occ(19,8,1) occ(66,8,10) occ(85,8,6) occ(90,8,8) occ(95,8,5) occ(103,8,7) occ(106,8,2) occ(115,8,11) occ(119,8,9) occ(7,9,2) occ(21,9,3) occ(37,9,1) occ(52,9,6) occ(64,9,12) occ(68,9,8) occ(82,9,5) occ(92,9,10) occ(97,9,7) occ(101,9,9) occ(104,9,4) occ(121,9,11) occ(23,10,5) occ(29,10,4) occ(35,10,3) occ(54,10,8) occ(60,10,9) occ(74,10,6) occ(80,10,7) occ(94,10,12) occ(117,10,10) occ(127,10,11) occ(5,11,3) occ(27,11,6) occ(33,11,1) occ(56,11,10) occ(62,11,11) occ(70,11,7) occ(76,11,4) occ(98,11,9) occ(99,11,8) occ(102,11,5) occ(123,11,12) occ(25,12,4) occ(31,12,3) occ(58,12,8) occ(72,12,5) occ(78,12,6) occ(96,12,11) occ(100,12,7) occ(125,12,10) occ(129,12,12)
Optimization: -128
Answer: 8
occ(1,10,1) occ(1,11,2) occ(1,7,11) occ(1,10,2) occ(1,1,2) occ(1,7,8) occ(1,1,4) occ(1,8,3) occ(2,2,2) occ(3,12,1) coverage(129) occ(18,1,5) occ(19,1,6) occ(90,1,9) occ(96,1,8) occ(110,1,3) occ(114,1,7) occ(120,1,10) occ(16,2,3) occ(21,2,4) occ(33,2,10) occ(84,2,11) occ(92,2,7) occ(98,2,6) occ(112,2,5) occ(116,2,9) occ(122,2,8) occ(127,2,1) occ(17,3,7) occ(20,3,4) occ(23,3,6) occ(35,3,12) occ(88,3,10) occ(94,3,9) occ(100,3,8) occ(108,3,2) occ(118,3,11) occ(121,3,5) occ(125,3,3) occ(4,4,1) occ(14,4,2) occ(15,4,5) occ(25,4,8) occ(31,4,11) occ(38,4,4) occ(52,4,3) occ(82,4,10) occ(86,4,12) occ(102,4,6) occ(119,4,7) occ(124,4,9) occ(22,5,5) occ(27,5,10) occ(32,5,8) occ(36,5,6) occ(37,5,11) occ(50,5,1) occ(56,5,2) occ(61,5,9) occ(78,5,7) occ(106,5,3) occ(123,5,4) occ(128,5,12) occ(6,6,2) occ(12,6,1) occ(13,6,6) occ(29,6,12) occ(40,6,3) occ(54,6,4) occ(59,6,7) occ(63,6,11) occ(80,6,9) occ(104,6,5) occ(117,6,8) occ(126,6,10) occ(10,7,3) occ(24,7,4) occ(30,7,9) occ(34,7,7) occ(39,7,12) occ(48,7,2) occ(57,7,5) occ(58,7,1) occ(76,7,6) occ(83,7,10) occ(8,8,1) occ(11,8,5) occ(26,8,6) occ(41,8,10) occ(42,8,4) occ(65,8,12) occ(79,8,11) occ(85,8,8) occ(95,8,9) occ(109,8,2) occ(115,8,7) occ(28,9,8) occ(46,9,3) occ(55,9,6) occ(60,9,2) occ(67,9,10) occ(71,9,12) occ(74,9,5) occ(81,9,9) occ(93,9,7) occ(97,9,11) occ(111,9,4) occ(9,10,4) occ(43,10,11) occ(44,10,5) occ(49,10,8) occ(68,10,7) occ(73,10,10) occ(77,10,12) occ(87,10,9) occ(107,10,3) occ(113,10,6) occ(5,11,3) occ(45,11,9) occ(53,11,7) occ(62,11,1) occ(66,11,5) occ(69,11,11) occ(72,11,4) occ(91,11,8) occ(99,11,10) occ(103,11,6) occ(7,12,5) occ(47,12,7) occ(51,12,9) occ(64,12,3) occ(70,12,6) occ(75,12,11) occ(89,12,10) occ(101,12,8) occ(105,12,4)
Optimization: -129
Answer: 9
occ(1,10,1) occ(1,11,2) occ(1,7,11) occ(1,10,2) occ(1,1,2) occ(1,7,8) occ(1,1,4) occ(1,8,3) occ(2,2,2) occ(3,12,1) coverage(130) occ(22,1,5) occ(26,1,9) occ(36,1,10) occ(95,1,6) occ(104,1,8) occ(110,1,3) occ(129,1,11) occ(10,2,4) occ(20,2,3) occ(24,2,7) occ(28,2,11) occ(34,2,12) occ(90,2,8) occ(91,2,9) occ(96,2,5) occ(102,2,10) occ(106,2,6) occ(112,2,1) occ(6,3,3) occ(12,3,2) occ(18,3,1) occ(32,3,10) occ(38,3,11) occ(86,3,9) occ(92,3,6) occ(93,3,7) occ(97,3,5) occ(100,3,8) occ(108,3,4) occ(127,3,12) occ(4,4,1) occ(8,4,5) occ(16,4,3) occ(30,4,12) occ(43,4,9) occ(84,4,11) occ(88,4,7) occ(89,4,8) occ(94,4,4) occ(98,4,6) occ(114,4,2) occ(117,4,10) occ(14,5,1) occ(40,5,12) occ(45,5,7) occ(61,5,5) occ(62,5,3) occ(82,5,9) occ(87,5,10) occ(99,5,6) occ(103,5,2) occ(111,5,4) occ(115,5,8) occ(125,5,11) occ(41,6,8) occ(42,6,10) occ(47,6,9) occ(59,6,3) occ(60,6,5) occ(80,6,7) occ(85,6,12) occ(101,6,4) occ(109,6,2) occ(113,6,6) occ(116,6,1) occ(119,6,11) occ(46,7,9) occ(49,7,7) occ(57,7,1) occ(63,7,6) occ(64,7,2) occ(78,7,5) occ(83,7,10) occ(105,7,3) occ(120,7,4) occ(123,7,12) occ(23,8,5) occ(39,8,9) occ(44,8,11) occ(53,8,4) occ(58,8,6) occ(65,8,8) occ(76,8,7) occ(81,8,12) occ(107,8,1) occ(118,8,2) occ(121,8,10) occ(7,9,4) occ(21,9,7) occ(35,9,12) occ(48,9,10) occ(51,9,6) occ(55,9,2) occ(56,9,8) occ(66,9,3) occ(73,9,11) occ(122,9,5) occ(15,10,3) occ(19,10,5) occ(25,10,4) occ(37,10,10) occ(50,10,12) occ(67,10,9) occ(74,10,6) occ(79,10,11) occ(126,10,8) occ(5,11,3) occ(9,11,5) occ(13,11,1) occ(29,11,7) occ(33,11,11) occ(54,11,9) occ(68,11,4) occ(71,11,10) occ(72,11,8) occ(75,11,12) occ(124,11,6) occ(11,12,3) occ(17,12,4) occ(27,12,5) occ(31,12,9) occ(52,12,11) occ(69,12,8) occ(70,12,6) occ(77,12,10) occ(128,12,7)
Optimization: -130
Answer: 10
occ(1,10,1) occ(1,11,2) occ(1,7,11) occ(1,10,2) occ(1,1,2) occ(1,7,8) occ(1,1,4) occ(1,8,3) occ(2,2,2) occ(3,12,1) coverage(131) occ(21,1,5) occ(26,1,9) occ(36,1,6) occ(42,1,3) occ(70,1,11) occ(116,1,10) occ(120,1,12) occ(124,1,8) occ(23,2,7) occ(34,2,8) occ(38,2,4) occ(44,2,1) occ(72,2,9) occ(76,2,5) occ(80,2,3) occ(108,2,11) occ(114,2,12) occ(122,2,10) occ(126,2,6) occ(19,3,6) occ(24,3,8) occ(28,3,10) occ(40,3,2) occ(61,3,5) occ(65,3,3) occ(68,3,12) occ(74,3,7) occ(82,3,1) occ(110,3,9) occ(118,3,11) occ(128,3,4) occ(4,4,3) occ(22,4,6) occ(25,4,8) occ(31,4,9) occ(32,4,7) occ(46,4,2) occ(52,4,5) occ(66,4,10) occ(67,4,1) occ(78,4,4) occ(106,4,12) occ(112,4,11) occ(6,5,1) occ(17,5,7) occ(29,5,11) occ(30,5,9) occ(50,5,3) occ(55,5,8) occ(59,5,6) occ(63,5,4) occ(64,5,12) occ(84,5,2) occ(104,5,10) occ(130,5,5) occ(15,6,5) occ(16,6,3) occ(20,6,7) occ(27,6,9) occ(33,6,8) occ(48,6,1) occ(54,6,6) occ(62,6,10) occ(69,6,2) occ(99,6,11) occ(102,6,12) occ(8,7,2) occ(13,7,3) occ(18,7,5) occ(35,7,6) occ(53,7,9) occ(57,7,7) occ(86,7,1) occ(100,7,10) occ(127,7,4) occ(11,8,5) occ(14,8,4) occ(39,8,9) occ(56,8,7) occ(60,8,11) occ(71,8,1) occ(97,8,10) occ(98,8,8) occ(101,8,12) occ(125,8,6) occ(129,8,2) occ(10,9,1) occ(37,9,7) occ(51,9,10) occ(58,9,9) occ(73,9,3) occ(81,9,11) occ(88,9,2) occ(95,9,12) occ(96,9,6) occ(113,9,5) occ(123,9,4) occ(9,10,6) occ(12,10,3) occ(41,10,8) occ(49,10,12) occ(75,10,5) occ(79,10,9) occ(89,10,10) occ(94,10,4) occ(103,10,11) occ(119,10,7) occ(5,11,3) occ(45,11,9) occ(77,11,7) occ(83,11,12) occ(87,11,8) occ(90,11,1) occ(93,11,11) occ(107,11,10) occ(111,11,6) occ(115,11,4) occ(121,11,5) occ(7,12,5) occ(43,12,7) occ(47,12,11) occ(85,12,10) occ(91,12,9) occ(92,12,3) occ(105,12,12) occ(109,12,8) occ(117,12,6)
Optimization: -131
Answer: 11
occ(1,10,1) occ(1,11,2) occ(1,7,11) occ(1,10,2) occ(1,1,2) occ(1,7,8) occ(1,1,4) occ(1,8,3) occ(2,2,2) occ(3,12,1) coverage(132) occ(21,1,5) occ(26,1,9) occ(36,1,6) occ(42,1,3) occ(70,1,11) occ(116,1,10) occ(120,1,12) occ(124,1,8) occ(23,2,7) occ(34,2,8) occ(38,2,4) occ(44,2,1) occ(72,2,9) occ(76,2,5) occ(80,2,3) occ(108,2,11) occ(114,2,12) occ(122,2,10) occ(126,2,6) occ(19,3,6) occ(24,3,8) occ(28,3,10) occ(40,3,2) occ(61,3,5) occ(65,3,3) occ(68,3,12) occ(74,3,7) occ(82,3,1) occ(110,3,9) occ(118,3,11) occ(128,3,4) occ(4,4,3) occ(22,4,6) occ(25,4,8) occ(31,4,9) occ(32,4,7) occ(46,4,2) occ(52,4,5) occ(66,4,10) occ(67,4,1) occ(78,4,4) occ(106,4,12) occ(112,4,11) occ(6,5,1) occ(17,5,7) occ(29,5,11) occ(30,5,9) occ(50,5,3) occ(55,5,8) occ(59,5,6) occ(63,5,4) occ(64,5,12) occ(84,5,2) occ(104,5,10) occ(130,5,5) occ(15,6,5) occ(16,6,3) occ(20,6,7) occ(27,6,9) occ(33,6,8) occ(48,6,1) occ(54,6,6) occ(62,6,10) occ(69,6,2) occ(99,6,11) occ(102,6,12) occ(8,7,2) occ(13,7,3) occ(18,7,5) occ(35,7,6) occ(53,7,9) occ(57,7,7) occ(86,7,1) occ(100,7,10) occ(127,7,4) occ(11,8,5) occ(14,8,4) occ(39,8,9) occ(56,8,7) occ(60,8,11) occ(71,8,1) occ(97,8,10) occ(98,8,8) occ(101,8,12) occ(125,8,2) occ(129,8,6) occ(10,9,1) occ(37,9,7) occ(51,9,10) occ(58,9,9) occ(73,9,3) occ(81,9,11) occ(88,9,2) occ(95,9,12) occ(96,9,6) occ(113,9,5) occ(123,9,4) occ(131,9,8) occ(9,10,6) occ(12,10,3) occ(41,10,8) occ(49,10,12) occ(75,10,5) occ(79,10,9) occ(89,10,10) occ(94,10,4) occ(103,10,11) occ(119,10,7) occ(5,11,3) occ(45,11,9) occ(77,11,7) occ(83,11,12) occ(87,11,8) occ(90,11,1) occ(93,11,11) occ(107,11,10) occ(111,11,6) occ(115,11,4) occ(121,11,5) occ(7,12,5) occ(43,12,7) occ(47,12,11) occ(85,12,10) occ(91,12,9) occ(92,12,3) occ(105,12,12) occ(109,12,8) occ(117,12,6)
Optimization: -132
*** Info : (clingo): INTERRUPTED by signal!
SATISFIABLE

TIME LIMIT   : 1
Models       : 11+
  Optimum    : unknown
Optimization : -132
Calls        : 1
Time         : 300.000s (Solving: 295.01s 1st Model: 0.01s Unsat: 0.00s)
CPU Time     : 300.002s
